words_hard_train/678.qaiger
aag 66 16 0 1 50
2
4
8
12
18
24
28
32
38
46
54
64
78
92
100
110
133
6 3 4
10 8 4
14 11 13
16 15 4
20 17 19
22 21 4
26 23 25
30 26 29
34 30 33
36 6 34
40 37 39
42 27 4
44 43 28
48 45 47
50 42 29
52 48 51
56 55 9
58 53 57
60 31 4
62 61 32
66 63 65
68 60 33
70 66 69
72 58 71
74 35 4
76 75 2
80 77 79
82 6 35
84 80 83
86 72 85
88 10 12
90 89 15
94 91 93
96 16 18
98 97 21
102 99 101
104 95 103
106 22 24
108 107 27
112 109 111
114 104 113
116 86 114
118 40 117
120 112 52
122 120 94
124 102 56
126 124 70
128 122 126
130 128 84
132 118 131
i0 2 y1[6]
i1 2 y1[7]
i2 2 y1[0]
i3 2 y1[1]
i4 2 y1[2]
i5 2 y1[3]
i6 2 y1[4]
i7 2 y1[5]
i8 1 x2[7]
i9 1 x2[4]
i10 1 x2[0]
i11 1 x2[5]
i12 1 x2[6]
i13 1 x2[1]
i14 1 x2[2]
i15 1 x2[3]
o0 bv[0]
c
simplified
  >=
    1
    add
      or
        1 x2
        abs
          2 y1
      1
