words_hard_train/678.qaiger.qdimacs
p cnf 66 151
a 32 39 46 50 19 55 23 27 0
e 1 2 3 4 5 6 7 8 9 10 11 12 13 14 15 16 17 18 20 21 22 24 25 26 28 29 30 31 33 34 35 36 37 38 40 41 42 43 44 45 47 48 49 51 52 53 54 56 57 58 59 60 61 62 63 64 65 66 0
1 -2 3 0
-1 -3 0
2 -3 0
-4 -2 5 0
4 -5 0
2 -5 0
5 6 7 0
-5 -7 0
-6 -7 0
7 -2 8 0
-7 -8 0
2 -8 0
8 9 10 0
-8 -10 0
-9 -10 0
10 -2 11 0
-10 -11 0
2 -11 0
11 12 13 0
-11 -13 0
-12 -13 0
-13 14 15 0
13 -15 0
-14 -15 0
-15 16 17 0
15 -17 0
-16 -17 0
-3 -17 18 0
3 -18 0
17 -18 0
18 19 20 0
-18 -20 0
-19 -20 0
13 -2 21 0
-13 -21 0
2 -21 0
21 -14 22 0
-21 -22 0
14 -22 0
22 23 24 0
-22 -24 0
-23 -24 0
-21 14 25 0
21 -25 0
-14 -25 0
-24 25 26 0
24 -26 0
-25 -26 0
27 4 28 0
-27 -28 0
-4 -28 0
26 28 29 0
-26 -29 0
-28 -29 0
15 -2 30 0
-15 -30 0
2 -30 0
30 -16 31 0
-30 -31 0
16 -31 0
31 32 33 0
-31 -33 0
-32 -33 0
-30 16 34 0
30 -34 0
-16 -34 0
-33 34 35 0
33 -35 0
-34 -35 0
-29 35 36 0
29 -36 0
-35 -36 0
17 -2 37 0
-17 -37 0
2 -37 0
37 -1 38 0
-37 -38 0
1 -38 0
38 39 40 0
-38 -40 0
-39 -40 0
-3 17 41 0
3 -41 0
-17 -41 0
-40 41 42 0
40 -42 0
-41 -42 0
-36 42 43 0
36 -43 0
-42 -43 0
-5 -6 44 0
5 -44 0
6 -44 0
44 7 45 0
-44 -45 0
-7 -45 0
45 46 47 0
-45 -47 0
-46 -47 0
-8 -9 48 0
8 -48 0
9 -48 0
48 10 49 0
-48 -49 0
-10 -49 0
49 50 51 0
-49 -51 0
-50 -51 0
47 51 52 0
-47 -52 0
-51 -52 0
-11 -12 53 0
11 -53 0
12 -53 0
53 13 54 0
-53 -54 0
-13 -54 0
54 55 56 0
-54 -56 0
-55 -56 0
-52 56 57 0
52 -57 0
-56 -57 0
-43 -57 58 0
43 -58 0
57 -58 0
-20 58 59 0
20 -59 0
-58 -59 0
-56 -26 60 0
56 -60 0
26 -60 0
-60 -47 61 0
60 -61 0
47 -61 0
-51 -28 62 0
51 -62 0
28 -62 0
-62 -35 63 0
62 -63 0
35 -63 0
-61 -63 64 0
61 -64 0
63 -64 0
-64 -42 65 0
64 -65 0
42 -65 0
-59 65 66 0
59 -66 0
-65 -66 0
-66 0
